Maximize
  12 x_crepe_cakes + 10 x_sponge_cakes + 15 x_birthday_cakes
Subject To
  c1: 200 x_crepe_cakes + 300 x_sponge_cakes + 350 x_birthday_cakes <= 14000
  c2: 400 x_crepe_cakes + 500 x_sponge_cakes + 450 x_birthday_cakes <= 20000
Integer
  x_crepe_cakes x_sponge_cakes x_birthday_cakes
End